1273
500000
326099
326099
326099
326099
326099
326099
326099
326099
326099
326099
326099
326099
326099
326099
326099
325812
325812
325812
325812
325812
325812
325812
325812
325812
325812
324798
323612
323612
323612
323612
323612
323612
322826
322826
322826
322826
322826
322826
322826
322826
322826
322826
322826
322729
322729
322729
322729
318672
318672
318672
318672
318672
318672
318672
318672
318672
318672
318672
318672
318672
318672
318672
318650
318650
318650
318650
318650
318650
318650
318650
318650
318650
318650
318650
317161
317161
317161
317161
317161
317161
317161
317161
317161
317161
317161
317161
317161
317161
316971
316971
316971
316971
316971
316971
316971
316971
316971
316971
316971
316971
316971
316971
316971
316971
316971
316971
315916
315916
315916
315916
314541
314541
314541
314541
314541
314541
314541
314541
314541
314541
313814
313814
313814
313814
313814
313814
313814
313814
313814
313814
313814
313814
313814
313814
313814
313814
308948
308948
308948
308948
308948
308948
308948
308948
308948
308948
308948
308948
308948
308948
308948
308948
308948
308353
308353
308353
308353
308353
308353
308353
308353
308353
308353
308353
308353
308353
308353
308353
308353
308353
308353
307254
307254
307254
307254
307254
307254
307254
307254
301165
301165
301165
301165
301165
301165
301165
301165
301165
301165
301165
301165
301165
301165
301165
301165
298622
298622
298622
298622
298622
298622
298622
298622
298622
297003
297003
297003
297003
297003
297003
297003
297003
297003
297003
297003
297003
297003
297003
297003
296613
289176
289176
289176
289176
289176
289176
289176
288213
288213
288213
288213
288213
288213
288213
288213
288213
288213
288213
288213
288213
288213
288213
288213
288213
288213
287963
287963
287963
287963
287963
287963
287963
287963
287963
287963
287963
287963
287963
282056
282056
282056
282056
282056
282056
282056
282056
282056
282056
282056
282056
282056
280316
280316
280316
280316
276457
276457
276457
276457
276457
276457
276457
276457
276457
276457
276457
276457
276457
276457
276457
276457
272251
272251
272251
272251
272251
272251
272251
272251
272251
272251
272251
271022
271022
271022
271022
271022
271022
271022
271022
271022
271022
271022
271022
271022
271022
271022
271022
271022
271022
271022
270980
270980
270980
270980
270980
270980
270980
270980
270980
270734
265511
265511
265511
265511
265511
265511
265511
265511
265511
265511
265511
264001
264001
260903
260903
260903
260903
260903
260903
260903
260903
260903
260903
260903
260903
260903
260903
260903
260903
257893
257893
257893
257893
257893
257893
257893
257893
257893
257893
257893
257893
257893
257893
256084
256084
256084
256084
256084
250502
250502
250502
250502
250502
250502
250502
249896
249896
249896
249896
249896
249758
249758
249758
249758
249758
249758
249758
247563
247563
247563
247563
247563
247563
247563
247563
247563
247563
247563
247563
247484
247484
247484
247484
247484
247484
247484
247484
247484
247484
247484
247484
247484
247484
247484
247484
247484
247484
247484
247252
246980
246980
246980
246980
246980
246980
246980
246980
246980
246980
246980
246980
246980
246980
244286
244286
244286
244286
244286
244286
242895
242895
242895
242895
242895
242895
242895
242895
242895
242895
242895
242895
242895
242609
242609
242609
242609
242609
242609
242609
242609
242609
242609
242609
242609
242609
242609
242609
242609
242609
242609
242609
242609
238603
238603
238603
238603
238603
238603
238603
238603
238603
238603
238603
238603
231882
231882
231882
231882
231882
231882
231882
231882
231882
231882
231882
231882
231335
231335
231263
231263
231263
231263
231263
231263
231263
231263
231263
231263
231263
231263
231263
231263
231263
230974
230974
230974
230974
230974
230974
230974
230974
230974
230974
225361
225361
225361
225361
225361
225361
225361
225361
225361
225147
225147
225147
225147
225147
225147
225147
225147
225147
225147
225147
225147
225147
225147
224519
223563
223563
222974
222974
222974
222974
222974
222974
222974
218471
218471
218471
218471
215138
215138
215138
215138
215138
214773
214773
214773
214773
214773
214773
214773
214773
214773
214773
214773
214773
214773
214773
214773
212362
212362
212362
212362
212362
212362
212362
212362
212362
212362
212362
212362
212362
212362
212362
212362
212362
212362
212362
212362
209258
209258
209258
209258
209258
209258
209258
209258
209258
209258
209258
209258
209258
209258
209258
209258
209258
205988
205988
205988
205988
205988
205988
205988
205988
200088
200088
200088
200088
200088
200088
200088
200088
200088
200088
200088
200088
200088
200088
200088
200088
200088
200088
200088
196069
196069
196069
196069
196069
196069
196069
196069
193682
193682
193682
193682
193682
193682
193682
193682
193408
193408
193408
193408
193408
193408
192678
192678
192678
192678
192678
192678
192678
192678
192449
192449
192449
192449
192449
192449
192449
192449
192449
192091
192091
192091
192091
192091
192091
192091
192091
192091
192091
192091
192091
192091
192091
192091
192091
192091
192091
192091
191805
191805
191805
191805
188012
188012
188012
188012
188012
188012
188012
188012
188012
188012
188012
188012
188012
188012
188012
188012
187304
187304
187304
187304
187304
187304
186079
186079
186079
186079
186079
186079
186079
186079
186079
185339
185339
185339
185339
185339
185339
185339
185339
185339
185339
185339
185339
185339
185339
178972
178972
178972
178972
178972
178972
178972
178972
178972
178972
178972
174293
174293
174293
174293
174293
174293
171687
171687
171687
171687
171687
171687
171687
171687
168724
168724
168724
168724
168724
168724
168724
168724
168724
168724
168724
168724
168724
168724
168724
168724
168724
168724
166092
166092
166092
166092
166092
166092
166092
166092
166092
166092
166092
166092
165737
165737
165737
164102
164102
164102
164102
164102
164102
164102
164102
164102
164102
164102
164102
164102
164102
164102
164102
164102
161964
161964
161964
161964
161964
161964
161964
161964
156898
156898
156898
156898
156843
156843
156843
156843
156843
156843
156843
156843
156843
156843
156843
156567
156567
156567
156567
156567
156567
156567
156567
156567
156567
156567
156567
156567
156567
156567
156567
156276
156276
156276
156276
153358
153358
153358
153358
153358
153358
153358
153358
153358
153358
153358
153358
151626
151626
151626
151626
151626
151626
151626
151626
151626
151626
151626
151626
148406
148406
148406
148406
148406
148406
148406
148406
148406
148406
148406
148406
148406
148406
148406
148406
148406
148406
148406
148406
147283
147283
147283
147283
147283
147283
147283
147283
147283
147283
145104
145104
145104
145104
145104
145104
145104
145104
145104
145104
145104
145104
145104
145104
145104
145104
145104
145104
145104
145104
143567
143567
143567
143567
143567
143567
143567
143567
143567
143567
143567
143567
141818
141818
141818
141818
141818
141818
141818
141818
141818
141818
141818
141818
139883
139883
139883
139883
139883
139883
139883
137500
137500
137500
137500
137500
137500
137500
137500
137500
137500
137500
137500
137500
137500
127984
127984
127984
127984
127984
127984
127499
127499
127499
127499
127499
125844
125844
125844
125844
125844
125844
125844
125844
124759
124759
124759
124759
124759
124759
124759
124759
124759
124759
124759
124759
122430
122430
122430
122430
122430
122430
122167
122167
121057
121057
121057
121057
121057
121057
121057
121057
121057
121057
121057
121057
121057
121057
116649
116649
116649
116649
116649
116649
116649
116649
116649
116649
112661
112661
112661
112661
112661
112661
112661
111349
111349
111349
111349
111349
111349
111349
111349
111349
111349
108454
108454
108454
108454
108454
108454
108454
108454
108454
108454
108454
108454
108454
108454
108454
108454
108454
108405
108405
108405
108405
108405
108405
106953
105950
105950
105950
105950
105950
102186
102186
102186
102186
102186
102186
102186
102186
102186
102186
102186
102186
102186
102186
102186
102186
95640
95640
95640
95640
93893
93893
93893
87335
87335
87335
87335
87335
86907
86907
86907
86907
86907
86907
86907
86907
86907
86907
86907
86907
86907
86907
86907
86907
86907
86763
86265
86265
86265
86265
86265
86265
86265
86265
86265
86265
86265
86265
86265
85659
85659
85659
85659
85659
85659
85659
85659
84729
84729
84729
84729
84729
84729
84729
84729
84729
84729
84729
84729
84729
84729
84729
84729
84729
83980
83980
83980
83980
83980
83980
83980
83980
83980
83980
83980
83980
83980
83980
83980
83980
83980
82354
82354
82354
82354
82354
82354
82354
82354
82354
82354
82354
82354
82354
82354
82115
82115
82115
82115
82115
82115
82115
82115
78669
78669
78669
76584
76584
76584
76584
76584
76584
76584
76584
76584
76584
76584
76584
76584
76584
76584
76584
76584
76584
76584
76584
73709
73709
73709
73709
72584
72584
72584
72584
72584
72584
72584
72584
72584
72584
72584
72584
72584
72584
66703
